(set-logic HORN)
(set-info :source |
  Benchmark: ../golem/build/RealCodeNested/originalcodeFlattenSeaHornsceleton4.c
  Generated by Korn 0.4 https://github.com/gernst/korn
|)


(declare-fun $main_inv3 (Int Int Int Int Int Int Int Int Int Int Int Int) Bool)
(declare-fun $main_inv4 (Int Int Int Int Int Int Int Int Int Int Int Int) Bool)
(declare-fun $main_if4 (Int Int Int Int Int Int Int Int Int Int Int Int Int Int Int Int Int Int Int Int Int Int Int Int) Bool)
(declare-fun __assert_fail (Int Int Int Int) Bool)
(declare-fun $main_inv2 (Int Int Int Int Int Int Int Int Int Int Int Int) Bool)
(declare-fun $main_loop (Int Int Int Int Int Int Int Int Int Int Int Int Int Int Int Int Int Int Int Int Int Int Int Int) Bool)
(declare-fun $main_sum2 (Int Int Int Int Int Int Int Int Int Int Int Int) Bool)
(declare-fun $main_if2 (Int Int Int Int Int Int Int Int Int Int Int Int Int Int Int Int Int Int Int Int Int Int Int Int) Bool)
(declare-fun $main_if3 (Int Int Int Int Int Int Int Int Int Int Int Int Int Int Int Int Int Int Int Int Int Int Int Int) Bool)
(declare-fun __VERIFIER_assert (Int) Bool)
(declare-fun $main_if9 (Int Int Int Int Int Int Int Int Int Int Int Int Int Int Int Int Int Int Int Int Int Int Int Int) Bool)
(declare-fun $main_if6 (Int Int Int Int Int Int Int Int Int Int Int Int Int Int Int Int Int Int Int Int Int Int Int Int) Bool)
(declare-fun $main_if8 (Int Int Int Int Int Int Int Int Int Int Int Int Int Int Int Int Int Int Int Int Int Int Int Int) Bool)
(declare-fun $main_sum4 (Int Int Int Int Int Int Int Int Int Int Int Int) Bool)
(declare-fun $main_sum3 (Int Int Int Int Int Int Int Int Int Int Int Int) Bool)
(declare-fun $__VERIFIER_assert_pre (Int) Bool)
(declare-fun $__VERIFIER_assert_if1 (Int Int) Bool)
(declare-fun $n_pre () Bool)
(declare-fun $main_inv5 (Int Int Int Int Int Int Int Int Int Int Int Int) Bool)
(declare-fun $main_if5 (Int Int Int Int Int Int Int Int Int Int Int Int Int Int Int Int Int Int Int Int Int Int Int Int) Bool)
(declare-fun $main_sum1 (Int Int Int Int Int Int Int Int Int Int Int Int) Bool)
(declare-fun $main_sum5 (Int Int Int Int Int Int Int Int Int Int Int Int) Bool)
(declare-fun $main_inv1 (Int Int Int Int Int Int Int Int Int Int Int Int) Bool)
(declare-fun $__assert_fail_pre (Int Int Int Int) Bool)
(declare-fun $main_if7 (Int Int Int Int Int Int Int Int Int Int Int Int Int Int Int Int Int Int Int Int Int Int Int Int) Bool)
(declare-fun n (Int) Bool)
(declare-fun $__VERIFIER_assert_ERROR (Int Int) Bool)

; label ERROR
(assert
  (forall ((cond!1 Int))
    (=> (and (not (not (= cond!1 0)))
             ($__VERIFIER_assert_pre cond!1))
        ($__VERIFIER_assert_ERROR cond!1 cond!1))))

; error
(assert
  (forall ((cond!1 Int) (cond!2 Int))
    (=> (and ($__VERIFIER_assert_ERROR cond!1 cond!2))
        false)))

; if else
(assert
  (forall ((cond!1 Int))
    (=> (and (not (not (not (= cond!1 0))))
             ($__VERIFIER_assert_pre cond!1))
        ($__VERIFIER_assert_if1 cond!1 cond!1))))

; post __VERIFIER_assert
(assert
  (forall ((cond!1 Int) (cond!3 Int))
    (=> (and ($__VERIFIER_assert_if1 cond!1 cond!3))
        (__VERIFIER_assert cond!1))))

; loop entry $main_inv1 (line 18)
(assert
  (forall ((Flattened!15 Int) (ATy!7 Int) (k!14 Int) (i!11 Int) (Ty!6 Int) (Worklist!5 Int) (TempRes!4 Int) (j!13 Int) (e!12 Int))
    (=> (and (<= 0 Ty!6)
             (<= Ty!6 10)
             (= e!12 10)
             (= i!11 0)
             (= ATy!7 0)
             (= Worklist!5 1)
             (= TempRes!4 0))
        ($main_inv1 TempRes!4 Worklist!5 Ty!6 ATy!7 i!11 e!12 j!13 i!11 e!12 j!13 k!14 Flattened!15))))

; loop term $main_sum1 (line 18)
(assert
  (forall ((Flattened!27 Int) (Worklist!17 Int) (ATy!19 Int) (e!24 Int) (TempRes!16 Int) (j!25 Int) (Ty!18 Int) (i!23 Int) (k!26 Int))
    (=> (and (not (> Worklist!17 0))
             ($main_inv1 TempRes!16 Worklist!17 Ty!18 ATy!19 i!23 e!24 j!25 i!23 e!24 j!25 k!26 Flattened!27))
        ($main_sum1 TempRes!16 Worklist!17 Ty!18 ATy!19 i!23 e!24 j!25 i!23 e!24 j!25 k!26 Flattened!27))))

; label loop
(assert
  (forall ((Flattened!27 Int) (Worklist!17 Int) (ATy!19 Int) (e!24 Int) (TempRes!16 Int) (j!25 Int) (Ty!18 Int) (i!23 Int) (k!26 Int))
    (=> (and (> Worklist!17 0)
             ($main_inv1 TempRes!16 Worklist!17 Ty!18 ATy!19 i!23 e!24 j!25 i!23 e!24 j!25 k!26 Flattened!27))
        ($main_loop TempRes!16 Worklist!17 Ty!18 ATy!19 i!23 e!24 j!25 i!23 e!24 j!25 k!26 Flattened!27 TempRes!16 Worklist!17 Ty!18 ATy!19 i!23 e!24 j!25 i!23 e!24 j!25 k!26 Flattened!27))))

; goto loop
(assert
  (forall ((Flattened!27 Int) (Worklist!17 Int) (k!38 Int) (TempRes!16 Int) (j!25 Int) (Worklist!29 Int) (Ty!30 Int) (Ty!18 Int) (j!37 Int) (ATy!19 Int) (i!23 Int) (k!26 Int) (e!24 Int) (TempRes!28 Int) (i!35 Int) (e!36 Int) (Flattened!39 Int) (ATy!31 Int))
    (=> (and (= Ty!30 1)
             (<= 0 Ty!30)
             (<= Ty!30 10)
             ($main_loop TempRes!16 Worklist!17 Ty!18 ATy!19 i!23 e!24 j!25 i!23 e!24 j!25 k!26 Flattened!27 TempRes!28 Worklist!29 Ty!30 ATy!31 i!35 e!36 j!37 i!35 e!36 j!37 k!38 Flattened!39))
        ($main_loop TempRes!16 Worklist!17 Ty!18 ATy!19 i!23 e!24 j!25 i!23 e!24 j!25 k!26 Flattened!27 (+ TempRes!28 1) Worklist!29 (mod (+ Ty!30 1) 5) ATy!31 i!35 e!36 j!37 i!35 e!36 j!37 k!38 Flattened!39))))

; if else
(assert
  (forall ((Flattened!27 Int) (Worklist!17 Int) (k!38 Int) (TempRes!16 Int) (j!25 Int) (Worklist!29 Int) (Ty!30 Int) (Ty!18 Int) (j!37 Int) (ATy!19 Int) (i!23 Int) (k!26 Int) (e!24 Int) (TempRes!28 Int) (i!35 Int) (e!36 Int) (Flattened!39 Int) (ATy!31 Int))
    (=> (and (not (= Ty!30 1))
             (<= 0 Ty!30)
             (<= Ty!30 10)
             ($main_loop TempRes!16 Worklist!17 Ty!18 ATy!19 i!23 e!24 j!25 i!23 e!24 j!25 k!26 Flattened!27 TempRes!28 Worklist!29 Ty!30 ATy!31 i!35 e!36 j!37 i!35 e!36 j!37 k!38 Flattened!39))
        ($main_if2 TempRes!16 Worklist!17 Ty!18 ATy!19 i!23 e!24 j!25 i!23 e!24 j!25 k!26 Flattened!27 TempRes!28 Worklist!29 Ty!30 ATy!31 i!35 e!36 j!37 i!35 e!36 j!37 k!38 Flattened!39))))

; if then
(assert
  (forall ((Flattened!27 Int) (Worklist!17 Int) (Flattened!51 Int) (ATy!19 Int) (i!47 Int) (e!24 Int) (Worklist!41 Int) (TempRes!16 Int) (j!25 Int) (Ty!42 Int) (e!48 Int) (TempRes!40 Int) (Ty!18 Int) (i!23 Int) (k!26 Int) (j!49 Int) (ATy!43 Int) (k!50 Int))
    (=> (and (= j!49 0)
             (< Worklist!41 0)
             (not (or (or (= Ty!42 2) (= Ty!42 3)) (= Ty!42 4)))
             ($main_if2 TempRes!16 Worklist!17 Ty!18 ATy!19 i!23 e!24 j!25 i!23 e!24 j!25 k!26 Flattened!27 TempRes!40 Worklist!41 Ty!42 ATy!43 i!47 e!48 j!49 i!47 e!48 j!49 k!50 Flattened!51))
        ($main_if3 TempRes!16 Worklist!17 Ty!18 ATy!19 i!23 e!24 j!25 i!23 e!24 j!25 k!26 Flattened!27 (+ TempRes!40 1) (+ Worklist!41 1) Ty!42 (+ ATy!43 1) i!47 e!48 j!49 i!47 e!48 j!49 k!50 Flattened!51))))

; if else
(assert
  (forall ((Flattened!27 Int) (Worklist!17 Int) (Flattened!51 Int) (ATy!19 Int) (i!47 Int) (e!24 Int) (Worklist!41 Int) (TempRes!16 Int) (j!25 Int) (Ty!42 Int) (e!48 Int) (TempRes!40 Int) (Ty!18 Int) (i!23 Int) (k!26 Int) (j!49 Int) (ATy!43 Int) (k!50 Int))
    (=> (and (not (= j!49 0))
             (< Worklist!41 0)
             (not (or (or (= Ty!42 2) (= Ty!42 3)) (= Ty!42 4)))
             ($main_if2 TempRes!16 Worklist!17 Ty!18 ATy!19 i!23 e!24 j!25 i!23 e!24 j!25 k!26 Flattened!27 TempRes!40 Worklist!41 Ty!42 ATy!43 i!47 e!48 j!49 i!47 e!48 j!49 k!50 Flattened!51))
        ($main_if3 TempRes!16 Worklist!17 Ty!18 ATy!19 i!23 e!24 j!25 i!23 e!24 j!25 k!26 Flattened!27 (+ TempRes!40 1) Worklist!41 Ty!42 ATy!43 i!47 e!48 j!49 i!47 e!48 j!49 k!50 Flattened!51))))

; goto loop
(assert
  (forall ((Flattened!27 Int) (ATy!19 Int) (e!24 Int) (k!62 Int) (e!60 Int) (i!59 Int) (Flattened!63 Int) (Worklist!17 Int) (TempRes!52 Int) (i!23 Int) (k!26 Int) (Worklist!53 Int) (TempRes!16 Int) (j!25 Int) (ATy!55 Int) (j!61 Int) (Ty!18 Int) (Ty!54 Int))
    (=> (and ($main_if3 TempRes!16 Worklist!17 Ty!18 ATy!19 i!23 e!24 j!25 i!23 e!24 j!25 k!26 Flattened!27 TempRes!52 Worklist!53 Ty!54 ATy!55 i!59 e!60 j!61 i!59 e!60 j!61 k!62 Flattened!63))
        ($main_loop TempRes!16 Worklist!17 Ty!18 ATy!19 i!23 e!24 j!25 i!23 e!24 j!25 k!26 Flattened!27 TempRes!52 Worklist!53 Ty!54 ATy!55 i!59 e!60 j!61 i!59 e!60 j!61 k!62 Flattened!63))))

; if else
(assert
  (forall ((Flattened!27 Int) (Worklist!17 Int) (Flattened!51 Int) (ATy!19 Int) (i!47 Int) (e!24 Int) (Worklist!41 Int) (TempRes!16 Int) (j!25 Int) (Ty!42 Int) (e!48 Int) (TempRes!40 Int) (Ty!18 Int) (i!23 Int) (k!26 Int) (j!49 Int) (ATy!43 Int) (k!50 Int))
    (=> (and (not (< Worklist!41 0))
             (not (or (or (= Ty!42 2) (= Ty!42 3)) (= Ty!42 4)))
             ($main_if2 TempRes!16 Worklist!17 Ty!18 ATy!19 i!23 e!24 j!25 i!23 e!24 j!25 k!26 Flattened!27 TempRes!40 Worklist!41 Ty!42 ATy!43 i!47 e!48 j!49 i!47 e!48 j!49 k!50 Flattened!51))
        ($main_if4 TempRes!16 Worklist!17 Ty!18 ATy!19 i!23 e!24 j!25 i!23 e!24 j!25 k!26 Flattened!27 (+ TempRes!40 1) Worklist!41 Ty!42 ATy!43 i!47 e!48 j!49 i!47 e!48 j!49 k!50 Flattened!51))))

; if then
(assert
  (forall ((Worklist!17 Int) (i!71 Int) (e!24 Int) (Ty!66 Int) (TempRes!16 Int) (j!25 Int) (k!74 Int) (Flattened!75 Int) (TempRes!64 Int) (Ty!18 Int) (Flattened!27 Int) (j!73 Int) (ATy!67 Int) (e!72 Int) (Worklist!65 Int) (ATy!19 Int) (i!23 Int) (k!26 Int))
    (=> (and ($main_if4 TempRes!16 Worklist!17 Ty!18 ATy!19 i!23 e!24 j!25 i!23 e!24 j!25 k!26 Flattened!27 TempRes!64 Worklist!65 Ty!66 ATy!67 i!71 e!72 j!73 i!71 e!72 j!73 k!74 Flattened!75))
        ($main_if5 TempRes!16 Worklist!17 Ty!18 ATy!19 i!23 e!24 j!25 i!23 e!24 j!25 k!26 Flattened!27 TempRes!64 Worklist!65 Ty!66 ATy!67 i!71 e!72 j!73 i!71 e!72 j!73 k!74 Flattened!75))))

; if else
(assert
  (forall ((Flattened!27 Int) (Worklist!17 Int) (Flattened!51 Int) (ATy!19 Int) (i!47 Int) (e!24 Int) (Worklist!41 Int) (TempRes!16 Int) (j!25 Int) (Ty!42 Int) (e!48 Int) (TempRes!40 Int) (Ty!18 Int) (i!23 Int) (k!26 Int) (j!49 Int) (ATy!43 Int) (k!50 Int))
    (=> (and (not (not (or (or (= Ty!42 2) (= Ty!42 3)) (= Ty!42 4))))
             ($main_if2 TempRes!16 Worklist!17 Ty!18 ATy!19 i!23 e!24 j!25 i!23 e!24 j!25 k!26 Flattened!27 TempRes!40 Worklist!41 Ty!42 ATy!43 i!47 e!48 j!49 i!47 e!48 j!49 k!50 Flattened!51))
        ($main_if5 TempRes!16 Worklist!17 Ty!18 ATy!19 i!23 e!24 j!25 i!23 e!24 j!25 k!26 Flattened!27 TempRes!40 Worklist!41 Ty!42 ATy!43 i!47 e!48 j!49 i!47 e!48 j!49 k!50 Flattened!51))))

; loop entry $main_inv2 (line 46)
(assert
  (forall ((TempRes!76 Int) (Flattened!27 Int) (ATy!79 Int) (Worklist!17 Int) (ATy!19 Int) (e!24 Int) (Worklist!77 Int) (j!25 Int) (Ty!78 Int) (k!86 Int) (e!84 Int) (Flattened!87 Int) (Ty!18 Int) (j!85 Int) (i!23 Int) (k!26 Int) (i!83 Int) (TempRes!16 Int))
    (=> (and (= e!84 10)
             (= i!83 0)
             (= Ty!78 2)
             ($main_if5 TempRes!16 Worklist!17 Ty!18 ATy!19 i!23 e!24 j!25 i!23 e!24 j!25 k!26 Flattened!27 TempRes!76 Worklist!77 Ty!78 ATy!79 i!83 e!84 j!85 i!83 e!84 j!85 k!86 Flattened!87))
        ($main_inv2 TempRes!76 Worklist!77 (mod (+ Ty!78 1) 5) ATy!79 i!83 e!84 j!85 i!83 e!84 j!85 k!86 Flattened!87))))

; loop term $main_sum2 (line 46)
(assert
  (forall ((Ty!90 Int) (k!98 Int) (j!97 Int) (i!95 Int) (ATy!91 Int) (TempRes!88 Int) (Flattened!99 Int) (e!96 Int) (Worklist!89 Int))
    (=> (and (not (not (= i!95 e!96)))
             ($main_inv2 TempRes!88 Worklist!89 Ty!90 ATy!91 i!95 e!96 j!97 i!95 e!96 j!97 k!98 Flattened!99))
        ($main_sum2 TempRes!88 Worklist!89 Ty!90 ATy!91 i!95 e!96 j!97 i!95 e!96 j!97 k!98 Flattened!99))))

; forwards $main_inv2 (line 46)
(assert
  (forall ((Ty!90 Int) (k!98 Int) (j!97 Int) (i!95 Int) (ATy!91 Int) (TempRes!88 Int) (Flattened!99 Int) (e!96 Int) (Worklist!89 Int))
    (=> (and (not (= i!95 e!96))
             ($main_inv2 TempRes!88 Worklist!89 Ty!90 ATy!91 i!95 e!96 j!97 i!95 e!96 j!97 k!98 Flattened!99))
        ($main_inv2 TempRes!88 (+ Worklist!89 1) Ty!90 (+ ATy!91 1) (+ i!95 1) e!96 j!97 (+ i!95 1) e!96 j!97 k!98 Flattened!99))))

; goto loop
(assert
  (forall ((j!109 Int) (Worklist!17 Int) (ATy!19 Int) (e!24 Int) (Ty!102 Int) (TempRes!16 Int) (Ty!18 Int) (Flattened!27 Int) (Flattened!111 Int) (k!110 Int) (i!23 Int) (k!26 Int) (j!25 Int) (Worklist!101 Int) (i!107 Int) (e!108 Int) (ATy!103 Int) (TempRes!100 Int))
    (=> (and ($main_sum2 TempRes!100 Worklist!101 Ty!102 ATy!103 i!107 e!108 j!109 i!107 e!108 j!109 k!110 Flattened!111))
        ($main_loop TempRes!16 Worklist!17 Ty!18 ATy!19 i!23 e!24 j!25 i!23 e!24 j!25 k!26 Flattened!27 TempRes!100 Worklist!101 Ty!102 ATy!103 i!107 e!108 j!109 i!107 e!108 j!109 k!110 Flattened!111))))

; if else
(assert
  (forall ((TempRes!76 Int) (Flattened!27 Int) (ATy!79 Int) (Worklist!17 Int) (ATy!19 Int) (e!24 Int) (Worklist!77 Int) (j!25 Int) (Ty!78 Int) (k!86 Int) (e!84 Int) (Flattened!87 Int) (Ty!18 Int) (j!85 Int) (i!23 Int) (k!26 Int) (i!83 Int) (TempRes!16 Int))
    (=> (and (not (= Ty!78 2))
             ($main_if5 TempRes!16 Worklist!17 Ty!18 ATy!19 i!23 e!24 j!25 i!23 e!24 j!25 k!26 Flattened!27 TempRes!76 Worklist!77 Ty!78 ATy!79 i!83 e!84 j!85 i!83 e!84 j!85 k!86 Flattened!87))
        ($main_if6 TempRes!16 Worklist!17 Ty!18 ATy!19 i!23 e!24 j!25 i!23 e!24 j!25 k!26 Flattened!27 TempRes!76 Worklist!77 Ty!78 ATy!79 i!83 e!84 j!85 i!83 e!84 j!85 k!86 Flattened!87))))

; loop entry $main_inv3 (line 57)
(assert
  (forall ((e!24 Int) (TempRes!16 Int) (j!25 Int) (Worklist!113 Int) (e!120 Int) (Flattened!27 Int) (j!121 Int) (i!119 Int) (Worklist!17 Int) (Flattened!123 Int) (ATy!19 Int) (i!23 Int) (k!26 Int) (TempRes!112 Int) (ATy!115 Int) (k!122 Int) (Ty!114 Int) (Ty!18 Int))
    (=> (and (= Ty!114 3)
             ($main_if6 TempRes!16 Worklist!17 Ty!18 ATy!19 i!23 e!24 j!25 i!23 e!24 j!25 k!26 Flattened!27 TempRes!112 Worklist!113 Ty!114 ATy!115 i!119 e!120 j!121 i!119 e!120 j!121 k!122 Flattened!123))
        ($main_inv3 TempRes!112 Worklist!113 (mod (+ Ty!114 1) 5) ATy!115 i!119 e!120 j!121 i!119 e!120 j!121 k!122 Flattened!123))))

; loop term $main_sum3 (line 57)
(assert
  (forall ((TempRes!124 Int) (Worklist!125 Int) (Flattened!135 Int) (i!131 Int) (j!133 Int) (Ty!126 Int) (k!134 Int) (e!132 Int) (ATy!127 Int))
    (=> (and (not (not (= i!131 e!132)))
             ($main_inv3 TempRes!124 Worklist!125 Ty!126 ATy!127 i!131 e!132 j!133 i!131 e!132 j!133 k!134 Flattened!135))
        ($main_sum3 TempRes!124 Worklist!125 Ty!126 ATy!127 i!131 e!132 j!133 i!131 e!132 j!133 k!134 Flattened!135))))

; forwards $main_inv3 (line 57)
(assert
  (forall ((TempRes!124 Int) (Worklist!125 Int) (Flattened!135 Int) (i!131 Int) (j!133 Int) (Ty!126 Int) (k!134 Int) (e!132 Int) (ATy!127 Int))
    (=> (and (not (= i!131 e!132))
             ($main_inv3 TempRes!124 Worklist!125 Ty!126 ATy!127 i!131 e!132 j!133 i!131 e!132 j!133 k!134 Flattened!135))
        ($main_inv3 TempRes!124 (+ Worklist!125 1) Ty!126 (+ ATy!127 1) (+ i!131 1) e!132 j!133 (+ i!131 1) e!132 j!133 k!134 Flattened!135))))

; goto loop
(assert
  (forall ((Flattened!27 Int) (Worklist!17 Int) (ATy!139 Int) (ATy!19 Int) (e!24 Int) (k!146 Int) (Worklist!137 Int) (Flattened!147 Int) (j!25 Int) (e!144 Int) (Ty!18 Int) (i!23 Int) (k!26 Int) (TempRes!136 Int) (TempRes!16 Int) (Ty!138 Int) (j!145 Int) (i!143 Int))
    (=> (and ($main_sum3 TempRes!136 Worklist!137 Ty!138 ATy!139 i!143 e!144 j!145 i!143 e!144 j!145 k!146 Flattened!147))
        ($main_loop TempRes!16 Worklist!17 Ty!18 ATy!19 i!23 e!24 j!25 i!23 e!24 j!25 k!26 Flattened!27 TempRes!136 Worklist!137 Ty!138 ATy!139 i!143 e!144 j!145 i!143 e!144 j!145 k!146 Flattened!147))))

; if else
(assert
  (forall ((e!24 Int) (TempRes!16 Int) (j!25 Int) (Worklist!113 Int) (e!120 Int) (Flattened!27 Int) (j!121 Int) (i!119 Int) (Worklist!17 Int) (Flattened!123 Int) (ATy!19 Int) (i!23 Int) (k!26 Int) (TempRes!112 Int) (ATy!115 Int) (k!122 Int) (Ty!114 Int) (Ty!18 Int))
    (=> (and (not (= Ty!114 3))
             ($main_if6 TempRes!16 Worklist!17 Ty!18 ATy!19 i!23 e!24 j!25 i!23 e!24 j!25 k!26 Flattened!27 TempRes!112 Worklist!113 Ty!114 ATy!115 i!119 e!120 j!121 i!119 e!120 j!121 k!122 Flattened!123))
        ($main_if7 TempRes!16 Worklist!17 Ty!18 ATy!19 i!23 e!24 j!25 i!23 e!24 j!25 k!26 Flattened!27 TempRes!112 Worklist!113 Ty!114 ATy!115 i!119 e!120 j!121 i!119 e!120 j!121 k!122 Flattened!123))))

; loop entry $main_inv4 (line 68)
(assert
  (forall ((Worklist!149 Int) (Flattened!27 Int) (Worklist!17 Int) (ATy!19 Int) (TempRes!148 Int) (i!155 Int) (e!156 Int) (j!25 Int) (Flattened!159 Int) (Ty!18 Int) (i!23 Int) (k!26 Int) (e!24 Int) (k!158 Int) (j!157 Int) (TempRes!16 Int) (ATy!151 Int) (Ty!150 Int))
    (=> (and (= Ty!150 4)
             ($main_if7 TempRes!16 Worklist!17 Ty!18 ATy!19 i!23 e!24 j!25 i!23 e!24 j!25 k!26 Flattened!27 TempRes!148 Worklist!149 Ty!150 ATy!151 i!155 e!156 j!157 i!155 e!156 j!157 k!158 Flattened!159))
        ($main_inv4 TempRes!148 Worklist!149 (mod (+ Ty!150 1) 5) ATy!151 i!155 e!156 j!157 i!155 e!156 j!157 k!158 Flattened!159))))

; loop term $main_sum4 (line 68)
(assert
  (forall ((e!168 Int) (Flattened!171 Int) (Ty!162 Int) (TempRes!160 Int) (Worklist!161 Int) (ATy!163 Int) (j!169 Int) (i!167 Int) (k!170 Int))
    (=> (and (not (not (= i!167 e!168)))
             ($main_inv4 TempRes!160 Worklist!161 Ty!162 ATy!163 i!167 e!168 j!169 i!167 e!168 j!169 k!170 Flattened!171))
        ($main_sum4 TempRes!160 Worklist!161 Ty!162 ATy!163 i!167 e!168 j!169 i!167 e!168 j!169 k!170 Flattened!171))))

; forwards $main_inv4 (line 68)
(assert
  (forall ((e!168 Int) (Flattened!171 Int) (Ty!162 Int) (TempRes!160 Int) (Worklist!161 Int) (ATy!163 Int) (j!169 Int) (i!167 Int) (k!170 Int))
    (=> (and (not (= i!167 e!168))
             ($main_inv4 TempRes!160 Worklist!161 Ty!162 ATy!163 i!167 e!168 j!169 i!167 e!168 j!169 k!170 Flattened!171))
        ($main_inv4 TempRes!160 (+ Worklist!161 1) Ty!162 (+ ATy!163 1) (+ i!167 1) e!168 j!169 (+ i!167 1) e!168 j!169 k!170 Flattened!171))))

; if then
(assert
  (forall ((Flattened!183 Int) (ATy!175 Int) (Worklist!17 Int) (ATy!19 Int) (e!24 Int) (k!182 Int) (TempRes!16 Int) (TempRes!172 Int) (j!181 Int) (e!180 Int) (Ty!18 Int) (i!179 Int) (Flattened!27 Int) (Ty!174 Int) (i!23 Int) (k!26 Int) (j!25 Int) (Worklist!173 Int))
    (=> (and ($main_sum4 TempRes!172 Worklist!173 Ty!174 ATy!175 i!179 e!180 j!181 i!179 e!180 j!181 k!182 Flattened!183))
        ($main_if8 TempRes!16 Worklist!17 Ty!18 ATy!19 i!23 e!24 j!25 i!23 e!24 j!25 k!26 Flattened!27 TempRes!172 Worklist!173 Ty!174 ATy!175 i!179 e!180 j!181 i!179 e!180 j!181 k!182 Flattened!183))))

; if else
(assert
  (forall ((Worklist!149 Int) (Flattened!27 Int) (Worklist!17 Int) (ATy!19 Int) (TempRes!148 Int) (i!155 Int) (e!156 Int) (j!25 Int) (Flattened!159 Int) (Ty!18 Int) (i!23 Int) (k!26 Int) (e!24 Int) (k!158 Int) (j!157 Int) (TempRes!16 Int) (ATy!151 Int) (Ty!150 Int))
    (=> (and (not (= Ty!150 4))
             ($main_if7 TempRes!16 Worklist!17 Ty!18 ATy!19 i!23 e!24 j!25 i!23 e!24 j!25 k!26 Flattened!27 TempRes!148 Worklist!149 Ty!150 ATy!151 i!155 e!156 j!157 i!155 e!156 j!157 k!158 Flattened!159))
        ($main_if8 TempRes!16 Worklist!17 Ty!18 ATy!19 i!23 e!24 j!25 i!23 e!24 j!25 k!26 Flattened!27 TempRes!148 Worklist!149 Ty!150 ATy!151 i!155 e!156 j!157 i!155 e!156 j!157 k!158 Flattened!159))))

; forwards $main_inv1 (line 18)
(assert
  (forall ((Flattened!27 Int) (Worklist!17 Int) (ATy!19 Int) (TempRes!184 Int) (e!24 Int) (Ty!186 Int) (j!25 Int) (k!194 Int) (ATy!187 Int) (Worklist!185 Int) (i!191 Int) (i!23 Int) (e!192 Int) (k!26 Int) (j!193 Int) (TempRes!16 Int) (Flattened!195 Int) (Ty!18 Int))
    (=> (and ($main_if8 TempRes!16 Worklist!17 Ty!18 ATy!19 i!23 e!24 j!25 i!23 e!24 j!25 k!26 Flattened!27 TempRes!184 Worklist!185 Ty!186 ATy!187 i!191 e!192 j!193 i!191 e!192 j!193 k!194 Flattened!195))
        ($main_inv1 TempRes!184 (- Worklist!185 2) Ty!186 (- ATy!187 2) 0 e!192 j!193 0 e!192 j!193 k!194 Flattened!195))))

; VERIFIER_assert (<= ATy!199 0)
(assert
  (forall ((Ty!198 Int) (k!206 Int) (j!205 Int) (TempRes!196 Int) (ATy!199 Int) (Flattened!207 Int) (e!204 Int) (i!203 Int) (Worklist!197 Int))
    (=> (and (not (<= ATy!199 0))
             ($main_sum1 TempRes!196 Worklist!197 Ty!198 ATy!199 i!203 e!204 j!205 i!203 e!204 j!205 k!206 Flattened!207))
        false)))

; loop entry $main_inv5 (line 83)
(assert
  (forall ((Ty!198 Int) (k!206 Int) (j!205 Int) (TempRes!196 Int) (ATy!199 Int) (Flattened!207 Int) (e!204 Int) (i!203 Int) (Worklist!197 Int))
    (=> (and (= Flattened!207 1)
             (= k!206 TempRes!196)
             (= j!205 1)
             ($main_sum1 TempRes!196 Worklist!197 Ty!198 ATy!199 i!203 e!204 j!205 i!203 e!204 j!205 k!206 Flattened!207))
        ($main_inv5 TempRes!196 Worklist!197 Ty!198 ATy!199 i!203 e!204 j!205 i!203 e!204 j!205 k!206 Flattened!207))))

; loop term $main_sum5 (line 83)
(assert
  (forall ((TempRes!208 Int) (k!218 Int) (e!216 Int) (ATy!211 Int) (Worklist!209 Int) (Flattened!219 Int) (i!215 Int) (Ty!210 Int) (j!217 Int))
    (=> (and (not (< j!217 k!218))
             ($main_inv5 TempRes!208 Worklist!209 Ty!210 ATy!211 i!215 e!216 j!217 i!215 e!216 j!217 k!218 Flattened!219))
        ($main_sum5 TempRes!208 Worklist!209 Ty!210 ATy!211 i!215 e!216 j!217 i!215 e!216 j!217 k!218 Flattened!219))))

; if then
(assert
  (forall ((TempRes!208 Int) (k!218 Int) (e!216 Int) (ATy!211 Int) (Worklist!209 Int) (Flattened!219 Int) (i!215 Int) (Ty!210 Int) (j!217 Int))
    (=> (and (= 1 Flattened!219)
             (< j!217 k!218)
             ($main_inv5 TempRes!208 Worklist!209 Ty!210 ATy!211 i!215 e!216 j!217 i!215 e!216 j!217 k!218 Flattened!219))
        ($main_if9 TempRes!208 Worklist!209 Ty!210 ATy!211 i!215 e!216 j!217 i!215 e!216 j!217 k!218 Flattened!219 TempRes!208 Worklist!209 Ty!210 ATy!211 i!215 e!216 j!217 i!215 e!216 j!217 k!218 (+ Flattened!219 1)))))

; if else
(assert
  (forall ((TempRes!208 Int) (k!218 Int) (e!216 Int) (ATy!211 Int) (Worklist!209 Int) (Flattened!219 Int) (i!215 Int) (Ty!210 Int) (j!217 Int))
    (=> (and (not (= 1 Flattened!219))
             (< j!217 k!218)
             ($main_inv5 TempRes!208 Worklist!209 Ty!210 ATy!211 i!215 e!216 j!217 i!215 e!216 j!217 k!218 Flattened!219))
        ($main_if9 TempRes!208 Worklist!209 Ty!210 ATy!211 i!215 e!216 j!217 i!215 e!216 j!217 k!218 Flattened!219 TempRes!208 Worklist!209 Ty!210 ATy!211 i!215 e!216 j!217 i!215 e!216 j!217 k!218 1))))

; forwards $main_inv5 (line 83)
(assert
  (forall ((TempRes!208 Int) (Worklist!221 Int) (k!230 Int) (Ty!222 Int) (k!218 Int) (e!216 Int) (j!229 Int) (Worklist!209 Int) (Flattened!219 Int) (i!215 Int) (Flattened!231 Int) (ATy!211 Int) (e!228 Int) (ATy!223 Int) (i!227 Int) (TempRes!220 Int) (Ty!210 Int) (j!217 Int))
    (=> (and ($main_if9 TempRes!208 Worklist!209 Ty!210 ATy!211 i!215 e!216 j!217 i!215 e!216 j!217 k!218 Flattened!219 TempRes!220 Worklist!221 Ty!222 ATy!223 i!227 e!228 j!229 i!227 e!228 j!229 k!230 Flattened!231))
        ($main_inv5 TempRes!220 Worklist!221 Ty!222 ATy!223 i!227 e!228 (+ j!229 1) i!227 e!228 (+ j!229 1) k!230 Flattened!231))))

(check-sat)
